p cnf 18 9
-15 -14 0
1 7 -11 4 -14 0
-3 6 -4 0
10 -9 14 -11 0
2 -11 16 5 -13 17 9 1 -10 7 3 -15 0
15 -6 1 0
-18 -12 10 -5 -6 17 -9 -11 15 3 13 2 -16 -8 -14 -4 0
12 14 -6 -10 0
11 -13 18 4 2 -16 6 -15 0
